8 31 62
26 27 68
31 37 69
28 43 67
3 52 64
20 57 58
35 62 63
36 63 69
29 58 48
21 62 42
50 56 37
9 52 33
49 48 28
5 40 30
38 45 35
11 42 41
32 38 46
1 37 52
22 42 57
2 49 49
16 52 41
34 61 33
30 58 27
10 51 21
39 59 15
33 46 10
45 39 10
15 36 16
44 30 15
37 32 22
17 27 23
4 20 26
18 17 33
47 25 32
12 31 32
46 32 39
51 30 40
27 30 48
6 21 47
48 25 55
23 16 57
7 17 63
43 5 64
24 8 52
14 12 42
25 7 38
13 5 25
41 10 17
19 13 13
42 21 10
40 5 6
8 31 62



